\ Model Mixed Integer Linear Programming Problem
\ LP format - for model browsing. Use MPS format to capture full model detail.
Maximize
  2 x + y + 3 z
Subject To
 c1: x + 2 y + z <= 4
 c2: y + 2 z <= 5
 c3: x + y >= 1
Bounds
Binaries
 x
Generals
 z
End
